
List of user-set options:

                                    Name   Value                used
                        file_print_level = 5                     yes
                   hessian_approximation = limited-memory        yes
                           linear_solver = mumps                 yes
                      nlp_scaling_method = user-scaling          yes
                             output_file = C:\Users\alexa\Documents\Chasing Amber\rosa\group_climb_out/IPOPT.out  yes
                             print_level = 0                     yes
                      print_user_options = yes                   yes
                                      sb = yes                   yes
This is Ipopt version 3.14.17, running with linear solver MUMPS 5.7.3.

Number of nonzeros in equality constraint Jacobian...:        0
Number of nonzeros in inequality constraint Jacobian.:        1
Number of nonzeros in Lagrangian Hessian.............:        0

Total number of variables............................:        1
                     variables with only lower bounds:        0
                variables with lower and upper bounds:        1
                     variables with only upper bounds:        0
Total number of equality constraints.................:        0
Total number of inequality constraints...............:        1
        inequality constraints with only lower bounds:        0
   inequality constraints with lower and upper bounds:        0
        inequality constraints with only upper bounds:        0

iter    objective    inf_pr   inf_du lg(mu)  ||d||  lg(rg) alpha_du alpha_pr  ls
   0  4.5083610e+03 0.00e+00 9.15e+00   0.0 0.00e+00    -  0.00e+00 0.00e+00   0
   1  4.4246742e+03 0.00e+00 9.14e+00   1.1 9.14e+00    -  9.96e-01 1.00e+00F  1
   2  4.3409031e+03 0.00e+00 9.15e+00  -0.9 9.15e+00    -  9.97e-01 1.00e+00f  1
   3  4.2571306e+03 0.00e+00 9.15e+00  -2.7 9.15e+00    -  1.00e+00 1.00e+00f  1
   4  4.1733581e+03 0.00e+00 9.15e+00  -4.5 9.15e+00    -  1.00e+00 1.00e+00f  1
   5  4.0895857e+03 0.00e+00 9.15e+00  -6.3 9.15e+00    -  1.00e+00 1.00e+00f  1
   6  4.0058132e+03 0.00e+00 9.15e+00  -8.1 9.15e+00    -  1.00e+00 1.00e+00f  1
   7  3.9220407e+03 0.00e+00 9.15e+00  -9.9 9.15e+00    -  1.00e+00 1.00e+00f  1
   8  3.8382682e+03 0.00e+00 9.15e+00 -11.0 9.15e+00    -  1.00e+00 1.00e+00f  1
   9  3.7544957e+03 0.00e+00 9.15e+00 -11.0 9.15e+00    -  1.00e+00 1.00e+00f  1
iter    objective    inf_pr   inf_du lg(mu)  ||d||  lg(rg) alpha_du alpha_pr  ls
  10  3.6707232e+03 0.00e+00 9.15e+00 -11.0 9.15e+00    -  1.00e+00 1.00e+00f  1
  11  3.5869507e+03 0.00e+00 9.15e+00 -11.0 9.15e+00    -  1.00e+00 1.00e+00f  1
  12  3.5031782e+03 0.00e+00 9.15e+00 -11.0 9.15e+00    -  1.00e+00 1.00e+00f  1
  13  3.4194057e+03 0.00e+00 9.15e+00 -11.0 9.15e+00    -  1.00e+00 1.00e+00f  1
  14  3.3356332e+03 0.00e+00 9.15e+00 -11.0 9.15e+00    -  1.00e+00 1.00e+00f  1
  15  3.2518607e+03 0.00e+00 9.15e+00 -11.0 9.15e+00    -  1.00e+00 1.00e+00f  1
  16  3.1680882e+03 0.00e+00 9.15e+00 -11.0 9.15e+00    -  1.00e+00 1.00e+00f  1
  17  2.5113199e+03 0.00e+00 9.15e+00 -11.0 4.19e+16    -  1.76e-14 1.48e-14f  2
  18  3.2838412e+02 0.00e+00 9.15e+00 -11.0 3.10e+02    -  1.00e+00 1.00e+00f  1
  19  2.6578883e+01 0.00e+00 9.15e+00 -11.0 1.55e+02    -  1.00e+00 2.50e-01f  3
Cholesky factorization failed for LBFGS update! Skipping update.
iter    objective    inf_pr   inf_du lg(mu)  ||d||  lg(rg) alpha_du alpha_pr  ls
  20  1.7791493e+01 0.00e+00 9.15e+00 -11.0 1.94e+01    -  1.00e+00 2.50e-01f  3
Cholesky factorization failed for LBFGS update! Skipping update.
  21  4.3936949e+00 0.00e+00 9.15e+00 -11.0 1.94e+01    -  1.00e+00 1.25e-01f  4
  22  1.1526021e+00 0.00e+00 9.15e+00 -11.0 1.94e+01    -  1.00e+00 3.12e-02f  6
  23  1.5634317e-01 0.00e+00 9.15e+00 -11.0 9.15e+00    -  1.00e+00 1.56e-02f  7
  24  7.2749865e-03 0.00e+00 9.15e+00 -11.0 7.15e-02    -  1.00e+00 2.50e-01f  3
  25  2.9511484e-03 0.00e+00 9.15e+00 -11.0 8.94e-03    -  1.00e+00 1.25e-01f  4
  26  2.1619190e-03 0.00e+00 9.15e+00 -11.0 5.59e-04    -  1.00e+00 1.00e+00f  1
  27  3.9461472e-04 0.00e+00 9.15e+00 -11.0 2.79e-04    -  1.00e+00 1.00e+00f  1
  28  2.4451872e-04 0.00e+00 9.15e+00 -11.0 1.40e-04    -  1.00e+00 5.00e-01f  2
  29  7.5047998e-05 0.00e+00 9.15e+00 -11.0 3.49e-05    -  1.00e+00 1.00e+00f  1
iter    objective    inf_pr   inf_du lg(mu)  ||d||  lg(rg) alpha_du alpha_pr  ls
  30  4.8436796e-06 0.00e+00 9.15e+00 -11.0 1.75e-05    -  1.00e+00 5.00e-01f  2
  31  1.4955367e-07 0.00e+00 9.15e+00 -11.0 4.36e-06    -  1.00e+00 1.25e-01f  4
  32  6.4901542e-09 0.00e+00 9.15e+00 -11.0 2.73e-07    -  1.00e+00 6.25e-02f  5
  33  3.2669050e-09 0.00e+00 9.15e+00 -11.0 8.52e-09    -  1.00e+00 1.25e-01f  4
  34  1.6098056e-09 0.00e+00 9.15e+00 -11.0 5.33e-10    -  1.00e+00 1.00e+00f  1
  35  8.2400220e-10 0.00e+00 9.15e+00 -11.0 2.66e-10    -  1.00e+00 1.00e+00f  1
  36  3.9290171e-10 0.00e+00 9.15e+00 -11.0 1.33e-10    -  1.00e+00 1.00e+00f  1
  37  2.1645974e-10 0.00e+00 9.15e+00 -11.0 6.66e-11    -  1.00e+00 1.00e+00f  1
  38  8.9130481e-11 0.00e+00 9.15e+00 -11.0 3.33e-11    -  1.00e+00 1.00e+00f  1
  39  6.5483619e-11 0.00e+00 9.15e+00 -11.0 1.67e-11    -  1.00e+00 1.00e+00f  1
iter    objective    inf_pr   inf_du lg(mu)  ||d||  lg(rg) alpha_du alpha_pr  ls
  40  1.8189894e-11 0.00e+00 9.15e+00 -11.0 8.30e-12    -  1.00e+00 1.00e+00f  1
  41  1.8189894e-12 0.00e+00 9.15e+00 -11.0 4.21e-12    -  1.00e+00 5.00e-01f  2
  42  9.0949470e-12 0.00e+00 9.15e+00 -11.0 1.02e-12    -  1.00e+00 1.00e+00   0
  43  7.2759576e-12 0.00e+00 9.15e+00 -11.0 5.68e-13    -  1.00e+00 1.00e+00T  0
  44  1.8189894e-12 0.00e+00 9.15e+00  -9.0 1.10e-11    -  1.00e+00 6.25e-02f  5
  45  1.8189894e-12 0.00e+00 9.15e+00  -9.0 3.41e-13    -  1.00e+00 1.00e+00   0
  46  1.8189894e-12 0.00e+00 9.15e+00  -9.0 2.27e-13    -  1.00e+00 1.00e+00T  0

Number of Iterations....: 46

                                   (scaled)                 (unscaled)
Objective...............:   1.8189894035458565e-12    1.8189894035458565e-12
Dual infeasibility......:   9.1527316886199142e+00    9.1527316886199142e+00
Constraint violation....:   0.0000000000000000e+00    0.0000000000000000e+00
Variable bound violation:   0.0000000000000000e+00    0.0000000000000000e+00
Complementarity.........:   9.0909090909090910e-10    9.0909090909090910e-10
Overall NLP error.......:   9.1527316886199142e+00    9.1527316886199142e+00


Number of objective function evaluations             = 148
Number of objective gradient evaluations             = 47
Number of equality constraint evaluations            = 0
Number of inequality constraint evaluations          = 149
Number of equality constraint Jacobian evaluations   = 0
Number of inequality constraint Jacobian evaluations = 47
Number of Lagrangian Hessian evaluations             = 0
Total seconds in IPOPT                               = 0.426

EXIT: Search Direction is becoming Too Small.
